rectOffsets = 
    [|0,0,3,3|0,0,3,3|0,0,3,4|0,0,4,3|0,0,3,5|0,0,5,3|0,0,3,6|0,0,6,3|0,0,3,7|0,0,7,3|0,0,3,8|0,0,8,3|0,0,3,9|0,0,9,3|0,0,3,10|0,0,10,3|0,0,3,12|0,0,12,3|0,0,3,16|0,0,16,3|0,0,3,40|0,0,40,3|0,0,4,4|0,0,4,4|0,0,4,14|0,0,14,4|0,0,4,22|0,0,22,4|0,0,5,3|0,0,3,5|0,0,5,4|0,0,4,5|0,0,5,8|0,0,8,5|0,0,5,12|0,0,12,5|0,0,5,13|0,0,13,5|0,0,22,40|0,0,40,22|];

shape = array1d(1..40, [{1}, {2}, {3}, {4}, {5}, {6}, {7}, {8}, {9}, {10},
    {11}, {12}, {13}, {14}, {15}, {16}, {17}, {18}, {19}, {20}, {21},
    {22}, {23}, {24}, {25}, {26}, {27}, {28}, {29}, {30}, {31}, {32},
    {33}, {34}, {35}, {36}, {37}, {38}, {39}, {40}]);

validshapes = array1d(1..20, [{1,2}, {3,4}, {5,6}, {7,8}, {9,10}, {11,12}, {13,14},
    {15,16}, {17,18}, {19,20}, {21,22}, {23,24}, {25,26}, {27,28},
    {29,30}, {31,32}, {33,34}, {35,36}, {37,38}, {39,40}]);

dx = array1d(1..20, [3, 3, 3, 3, 3, 3, 3, 3, 3, 3, 3, 4, 4, 4, 5, 5, 5, 5,
    5, 22]);

dy = array1d(1..20, [3, 4, 5, 6, 7, 8, 9, 10, 12, 16, 40, 4, 14, 22, 3, 4,
    8, 12, 13, 40]);

w = 40;

n = 20;

o = 40;

